
Gurobi 8.1.1 (win64, Python) logging started 01/10/20 23:38:42

Academic license - for non-commercial use only

Gurobi 8.1.1 (win64, Python) logging started 01/10/20 23:39:14

Academic license - for non-commercial use only

Gurobi 8.1.1 (win64, Python) logging started 01/10/20 23:49:58

Academic license - for non-commercial use only

Gurobi 8.1.1 (win64, Python) logging started 01/10/20 23:53:28

Academic license - for non-commercial use only

Gurobi 8.1.1 (win64, Python) logging started 01/10/20 23:54:30

Academic license - for non-commercial use only

Gurobi 8.1.1 (win64, Python) logging started 01/10/20 23:59:22

Academic license - for non-commercial use only

Gurobi 8.1.1 (win64, Python) logging started 01/11/20 00:03:12

Academic license - for non-commercial use only

Gurobi 8.1.1 (win64, Python) logging started 01/11/20 01:02:04

Academic license - for non-commercial use only

Gurobi 8.1.1 (win64, Python) logging started 01/11/20 01:05:13

Academic license - for non-commercial use only

Gurobi 8.1.1 (win64, Python) logging started 01/11/20 01:08:48

Academic license - for non-commercial use only

Gurobi 8.1.1 (win64, Python) logging started 01/11/20 01:11:30

Academic license - for non-commercial use only

Gurobi 8.1.1 (win64, Python) logging started 01/11/20 01:14:30

Academic license - for non-commercial use only

Gurobi 8.1.1 (win64, Python) logging started 01/11/20 01:18:35

Academic license - for non-commercial use only

Gurobi 8.1.1 (win64, Python) logging started 01/11/20 01:22:14

Academic license - for non-commercial use only

Gurobi 8.1.1 (win64, Python) logging started 01/11/20 01:22:43

Academic license - for non-commercial use only

Gurobi 8.1.1 (win64, Python) logging started 01/11/20 01:46:42

Academic license - for non-commercial use only

Gurobi 8.1.1 (win64, Python) logging started 01/11/20 03:41:00

Academic license - for non-commercial use only
